# Solution for model r5_t18_m2_8
# Finished Task: 16 / 18
# Makespan: 726.0, Total Distance: 951.0, Total Time: 0.1422
# R O S F
0 0 20 0.0 0.0
1 1 18 0.0 0.0
2 2 14 0.0 0.0
3 3 17 0.0 0.0
4 4 8 0.0 0.0
5 1 -1 629.0 653.0
6 0 11 591.0 629.0
7 3 -1 693.0 726.0
8 4 10 406.0 426.0
9 4 -1 541.0 569.0
10 4 9 464.0 499.0
11 0 -1 652.0 686.0
12 3 7 617.0 637.0
13 2 -1 561.0 591.0
14 2 13 406.0 440.0
15 3 21 484.0 509.0
16 -1 -1 -1.0 -1.0
17 3 15 440.0 463.0
18 1 19 284.0 320.0
19 1 5 529.0 561.0
20 0 6 372.0 406.0
21 3 12 535.0 564.0
22 -1 -1 -1.0 -1.0
